Grasp exp. instance_n_15_m_5_id_4.lp tipoLifted 0 szPool 5 nIteration 50 alpha 0.6 
Academic license - for non-commercial use only
Read LP format model from file ../input/instancesGenerated/instance_n_15_m_5_id_4.lp
Reading time = 0.00 seconds
: 5 rows, 15 columns, 75 nonzeros
Optimize a model with 5 rows, 15 columns and 75 nonzeros
Variable types: 0 continuous, 15 integer (15 binary)
Coefficient statistics:
  Matrix range     [1e+00, 1e+01]
  Objective range  [1e+00, 1e+01]
  Bounds range     [1e+00, 1e+00]
  RHS range        [3e+01, 4e+01]
Found heuristic solution: objective 41.0000000

Explored 0 nodes (0 simplex iterations) in 0.00 seconds
Thread count was 1 (of 8 available processors)

Solution count 1: 41 
No other solutions better than 0

Solution limit reached
Best objective 4.100000000000e+01, best bound -, gap -
C_1:	 7.00 x_1  = 0.769921 + 4.00 x_2  = 0.000000 + 7.00 x_3  = 0.000000 + 3.00 x_4  = 0.825006 + 1.00 x_5  = 0.000000 + 3.00 x_6  = 1.000000 + 3.00 x_7  = 1.000000 + 9.00 x_8  = 0.000000 + 2.00 x_9  = 0.169101 + 2.00 x_10  = 1.000000 + 10.00 x_11  = 0.000000 + 2.00 x_12  = 0.404817 + 5.00 x_13  = 1.000000 + 6.00 x_14  = 1.000000 + 5.00 x_15  = 1.000000 <= 34.00
C_2:	 6.00 x_1  = 0.769921 + 3.00 x_2  = 0.000000 + 3.00 x_3  = 0.000000 + 3.00 x_4  = 0.825006 + 2.00 x_5  = 0.000000 + 5.00 x_6  = 1.000000 + 3.00 x_7  = 1.000000 + 6.00 x_8  = 0.000000 + 10.00 x_9  = 0.169101 + 4.00 x_10  = 1.000000 + 2.00 x_11  = 0.000000 + 3.00 x_12  = 0.404817 + 2.00 x_13  = 1.000000 + 2.00 x_14  = 1.000000 + 1.00 x_15  = 1.000000 <= 27.00
C_3:	 9.00 x_1  = 0.769921 + 8.00 x_2  = 0.000000 + 6.00 x_3  = 0.000000 + 7.00 x_4  = 0.825006 + 1.00 x_5  = 0.000000 + 6.00 x_6  = 1.000000 + 1.00 x_7  = 1.000000 + 5.00 x_8  = 0.000000 + 4.00 x_9  = 0.169101 + 4.00 x_10  = 1.000000 + 6.00 x_11  = 0.000000 + 4.00 x_12  = 0.404817 + 5.00 x_13  = 1.000000 + 3.00 x_14  = 1.000000 + 1.00 x_15  = 1.000000 <= 35.00
C_4:	 2.00 x_1  = 0.769921 + 8.00 x_2  = 0.000000 + 6.00 x_3  = 0.000000 + 6.00 x_4  = 0.825006 + 2.00 x_5  = 0.000000 + 7.00 x_6  = 1.000000 + 2.00 x_7  = 1.000000 + 4.00 x_8  = 0.000000 + 4.00 x_9  = 0.169101 + 1.00 x_10  = 1.000000 + 8.00 x_11  = 0.000000 + 7.00 x_12  = 0.404817 + 6.00 x_13  = 1.000000 + 1.00 x_14  = 1.000000 + 9.00 x_15  = 1.000000 <= 36.00
C_5:	 6.00 x_1  = 0.769921 + 9.00 x_2  = 0.000000 + 6.00 x_3  = 0.000000 + 1.00 x_4  = 0.825006 + 7.00 x_5  = 0.000000 + 8.00 x_6  = 1.000000 + 6.00 x_7  = 1.000000 + 8.00 x_8  = 0.000000 + 3.00 x_9  = 0.169101 + 1.00 x_10  = 1.000000 + 1.00 x_11  = 0.000000 + 10.00 x_12  = 0.404817 + 6.00 x_13  = 1.000000 + 8.00 x_14  = 1.000000 + 2.00 x_15  = 1.000000 <= 41.00
Solution initial: 59.863951 
Number Constraints Used in Cover:5
GRASP Method!
Number cuts repeat: 0
value: 59.863951
Number Constraints Used in Cover:12
GRASP Method!
Number cuts repeat: 0
value: 59.863951
Number Constraints Used in Cover:23
GRASP Method!
Number cuts repeat: 0
value: 59.863951
Number Constraints Used in Cover:36
GRASP Method!
Number cuts repeat: 0
value: 59.863951
Number Constraints Used in Cover:41
GRASP Method!
Number cuts repeat: 0
value: 59.863951
Number Constraints Used in Cover:47
GRASP Method!
Number cuts repeat: 0
value: 59.863951
Number Constraints Used in Cover:54
GRASP Method!
Number cuts repeat: 0
value: 59.863951
Number Constraints Used in Cover:65
GRASP Method!
Number cuts repeat: 0
value: 59.863951
Number Constraints Used in Cover:73
GRASP Method!
Number cuts repeat: 0
value: 59.863951
Number Constraints Used in Cover:79
GRASP Method!
Number cuts repeat: 0
value: 59.863951
Number Constraints Used in Cover:83
GRASP Method!
Number cuts repeat: 0
value: 59.863951
Number Constraints Used in Cover:90
GRASP Method!
Number cuts repeat: 0
value: 59.863951
Number Constraints Used in Cover:93
GRASP Method!
Number cuts repeat: 0
value: 59.863951
Number Constraints Used in Cover:107
GRASP Method!
Number cuts repeat: 0
value: 59.863951
Number Constraints Used in Cover:110
GRASP Method!
Number cuts repeat: 0
value: 59.863951
Number Constraints Used in Cover:118
GRASP Method!
Number cuts repeat: 0
value: 59.863951
Number Constraints Used in Cover:121
GRASP Method!
Number cuts repeat: 0
value: 59.863951
Number Constraints Used in Cover:127
GRASP Method!
Number cuts repeat: 0
value: 59.863951
Number Constraints Used in Cover:133
GRASP Method!
Number cuts repeat: 0
value: 59.863951
Number Constraints Used in Cover:136
GRASP Method!
Number cuts repeat: 0
value: 59.863951
Number Constraints Used in Cover:139
GRASP Method!
Number cuts repeat: 0
value: 59.863951
Number Constraints Used in Cover:145
GRASP Method!
Number cuts repeat: 0
value: 59.863951
Number Constraints Used in Cover:146
GRASP Method!
Number cuts repeat: 0
value: 59.863951
Number Constraints Used in Cover:147
GRASP Method!
Number cuts repeat: 0
value: 59.863951
Number Constraints Used in Cover:150
GRASP Method!
Number cuts repeat: 0
value: 59.863951
Number Constraints Used in Cover:151
GRASP Method!
Number cuts repeat: 0
value: 59.863951
Number Constraints Used in Cover:153
GRASP Method!
Number cuts repeat: 0
value: 59.863951
Number Constraints Used in Cover:154
GRASP Method!
Number cuts repeat: 0
value: 59.863951
Number Constraints Used in Cover:157
GRASP Method!
Number cuts repeat: 0
value: 59.863951
Number Constraints Used in Cover:164
GRASP Method!
Number cuts repeat: 0
value: 59.863951
Number Constraints Used in Cover:168
GRASP Method!
Number cuts repeat: 0
value: 59.863951
Number Constraints Used in Cover:175
GRASP Method!
Number cuts repeat: 0
value: 59.863951
Number Constraints Used in Cover:179
GRASP Method!
Number cuts repeat: 0
value: 59.863951
Number Constraints Used in Cover:181
GRASP Method!
Number cuts repeat: 0
value: 59.863951
Number Constraints Used in Cover:184
GRASP Method!
Number cuts repeat: 0
value: 59.863951
Number Constraints Used in Cover:191
GRASP Method!
Number cuts repeat: 0
value: 59.863951
Number Constraints Used in Cover:193
GRASP Method!
Number cuts repeat: 0
value: 59.863951
Number Constraints Used in Cover:199
GRASP Method!
Number cuts repeat: 0
value: 59.863951
Number Constraints Used in Cover:200
GRASP Method!
Number cuts repeat: 0
value: 59.863951
Number Constraints Used in Cover:204
GRASP Method!
Number cuts repeat: 0
value: 59.863951
Number Constraints Used in Cover:209
GRASP Method!
Number cuts repeat: 0
value: 59.863951
Number Constraints Used in Cover:210
GRASP Method!
Number cuts repeat: 0
value: 59.863951
Number Constraints Used in Cover:214
GRASP Method!
Number cuts repeat: 0
value: 59.863951
Number Constraints Used in Cover:217
GRASP Method!
Number cuts repeat: 0
value: 59.863951
Number Constraints Used in Cover:220
GRASP Method!
Number cuts repeat: 0
value: 59.863951
Number Constraints Used in Cover:222
GRASP Method!
Number cuts repeat: 0
value: 59.863951
Number Constraints Used in Cover:223
GRASP Method!
Number cuts repeat: 0
value: 59.863951
Number Constraints Used in Cover:227
GRASP Method!
Number cuts repeat: 0
value: 59.863951
Number Constraints Used in Cover:233
GRASP Method!
Number cuts repeat: 0
value: 59.863951
Number Constraints Used in Cover:237
GRASP Method!
Number cuts repeat: 0
value: 59.863951
Number Constraints Used in Cover:238
GRASP Method!
Number cuts repeat: 0
value: 59.863951
Number Constraints Used in Cover:240
GRASP Method!
Number cuts repeat: 0
value: 59.863951
Number Constraints Used in Cover:242
GRASP Method!
Number cuts repeat: 0
value: 59.863951
Number Constraints Used in Cover:243
GRASP Method!
Number cuts repeat: 0
value: 59.863951
Number Constraints Used in Cover:243
GRASP Method!
Number cuts repeat: 0
value: 59.863951
Number Constraints Used in Cover:246
GRASP Method!
Number cuts repeat: 0
value: 59.863951
Number Constraints Used in Cover:254
GRASP Method!
Number cuts repeat: 0
value: 59.863951
Number Constraints Used in Cover:255
GRASP Method!
Number cuts repeat: 0
value: 59.863951
Number Constraints Used in Cover:257
GRASP Method!
Number cuts repeat: 0
value: 59.863951
Number Constraints Used in Cover:260
GRASP Method!
Number cuts repeat: 0
value: 59.863951
Number Constraints Used in Cover:262
GRASP Method!
Number cuts repeat: 0
value: 59.863951
Number Constraints Used in Cover:267
GRASP Method!
Number cuts repeat: 0
value: 59.863951
Number Constraints Used in Cover:267
GRASP Method!
Number cuts repeat: 0
value: 59.863951
Number Constraints Used in Cover:268
GRASP Method!
Number cuts repeat: 0
value: 59.863951
Number Constraints Used in Cover:270
GRASP Method!
Number cuts repeat: 0
value: 59.863951
Number Constraints Used in Cover:271
GRASP Method!
Number cuts repeat: 0
value: 59.863951
Number Constraints Used in Cover:275
GRASP Method!
Number cuts repeat: 0
value: 59.863951
Number Constraints Used in Cover:277
GRASP Method!
Number cuts repeat: 0
value: 59.863951
Number Constraints Used in Cover:277
GRASP Method!
Number cuts repeat: 0
value: 59.863951
Number Constraints Used in Cover:280
GRASP Method!
Number cuts repeat: 0
value: 59.863951
Number Constraints Used in Cover:284
GRASP Method!
Number cuts repeat: 0
value: 59.863951
Number Constraints Used in Cover:288
GRASP Method!
Number cuts repeat: 0
value: 59.863951
Number Constraints Used in Cover:290
GRASP Method!
Number cuts repeat: 0
value: 59.863951
Number Constraints Used in Cover:290
GRASP Method!
Number cuts repeat: 0
value: 59.863951
Number Constraints Used in Cover:293
GRASP Method!
Number cuts repeat: 0
value: 59.863951
Number Constraints Used in Cover:295
GRASP Method!
Number cuts repeat: 0
value: 59.863951
Number Constraints Used in Cover:296
GRASP Method!
Number cuts repeat: 0
value: 59.863951
Number Constraints Used in Cover:298
GRASP Method!
Number cuts repeat: 0
value: 59.863951
Number Constraints Used in Cover:299
GRASP Method!
Number cuts repeat: 0
value: 59.863951
Number Constraints Used in Cover:300
GRASP Method!
Number cuts repeat: 0
value: 59.863951
Number Constraints Used in Cover:304
GRASP Method!
Number cuts repeat: 0
value: 59.863951
Number Constraints Used in Cover:305
GRASP Method!
Number cuts repeat: 0
value: 59.863951
Number Constraints Used in Cover:306
GRASP Method!
Number cuts repeat: 0
value: 59.863951
Number Constraints Used in Cover:309
GRASP Method!
Number cuts repeat: 0
value: 59.863951
Number Constraints Used in Cover:310
GRASP Method!
Number cuts repeat: 0
value: 59.863951
Number Constraints Used in Cover:314
GRASP Method!
Number cuts repeat: 0
value: 59.863951
Number Constraints Used in Cover:320
GRASP Method!
Number cuts repeat: 0
value: 59.863951
Number Constraints Used in Cover:327
GRASP Method!
Number cuts repeat: 0
value: 59.863951
Number Constraints Used in Cover:331
GRASP Method!
Number cuts repeat: 0
value: 59.863951
Number Constraints Used in Cover:335
GRASP Method!
Number cuts repeat: 0
value: 59.863951
Number Constraints Used in Cover:339
GRASP Method!
Number cuts repeat: 0
value: 59.863951
Number Constraints Used in Cover:340
GRASP Method!
Number cuts repeat: 0
value: 59.863951
Number Constraints Used in Cover:341
GRASP Method!
Number cuts repeat: 0
value: 59.863951
Number Constraints Used in Cover:346
GRASP Method!
Number cuts repeat: 0
value: 59.863951
Number Constraints Used in Cover:349
GRASP Method!
Number cuts repeat: 0
value: 59.863951
Number Constraints Used in Cover:349
GRASP Method!
Number cuts repeat: 0
value: 59.863951
Number Constraints Used in Cover:351
GRASP Method!
Number cuts repeat: 0
value: 59.863951
Number Constraints Used in Cover:352
GRASP Method!
Number cuts repeat: 0
value: 59.863951
Number Constraints Used in Cover:357
GRASP Method!
Number cuts repeat: 0
value: 59.863951
Number Constraints Used in Cover:359
GRASP Method!
Number cuts repeat: 0
value: 59.863951
Number Constraints Used in Cover:364
GRASP Method!
Number cuts repeat: 0
value: 59.863951
Number Constraints Used in Cover:372
GRASP Method!
Number cuts repeat: 0
value: 59.863951
Number Constraints Used in Cover:378
GRASP Method!
Number cuts repeat: 0
value: 59.863951
Number Constraints Used in Cover:386
GRASP Method!
Number cuts repeat: 0
value: 59.863951
Number Constraints Used in Cover:391
GRASP Method!
Number cuts repeat: 0
value: 59.863951
Number Constraints Used in Cover:396
GRASP Method!
Number cuts repeat: 0
value: 59.863951
Number Constraints Used in Cover:398
GRASP Method!
Number cuts repeat: 0
value: 59.863951
Number Constraints Used in Cover:401
GRASP Method!
Number cuts repeat: 0
value: 59.863951
Number Constraints Used in Cover:404
GRASP Method!
Number cuts repeat: 0
value: 59.863951
Number Constraints Used in Cover:406
GRASP Method!
Number cuts repeat: 0
value: 59.863951
Number Constraints Used in Cover:409
GRASP Method!
Number cuts repeat: 0
value: 59.863951
Number Constraints Used in Cover:409
GRASP Method!
Number cuts repeat: 0
value: 59.863951
Number Constraints Used in Cover:411
GRASP Method!
Number cuts repeat: 0
value: 59.863951
Number Constraints Used in Cover:412
GRASP Method!
Number cuts repeat: 0
value: 59.863951
Number Constraints Used in Cover:417
GRASP Method!
Number cuts repeat: 0
value: 59.863951
Number Constraints Used in Cover:419
GRASP Method!
Number cuts repeat: 0
value: 59.863951
Number Constraints Used in Cover:419
GRASP Method!
Number cuts repeat: 0
value: 59.863951
Number Constraints Used in Cover:422
GRASP Method!
Number cuts repeat: 0
value: 59.863951
Number Constraints Used in Cover:423
GRASP Method!
Number cuts repeat: 0
value: 59.863951
Number Constraints Used in Cover:427
GRASP Method!
Number cuts repeat: 0
value: 59.863951
Number Constraints Used in Cover:431
GRASP Method!
Number cuts repeat: 0
value: 59.863951
Number Constraints Used in Cover:436
GRASP Method!
Number cuts repeat: 0
value: 59.863951
Number Constraints Used in Cover:436
GRASP Method!
Number cuts repeat: 0
value: 59.863951
Number Constraints Used in Cover:436
GRASP Method!
Number cuts repeat: 0
value: 59.863951
Number Constraints Used in Cover:439
GRASP Method!
Number cuts repeat: 0
value: 59.863951
Number Constraints Used in Cover:441
GRASP Method!
Number cuts repeat: 0
value: 59.863951
Number Constraints Used in Cover:445
GRASP Method!
Number cuts repeat: 0
value: 59.863951
Number Constraints Used in Cover:448
GRASP Method!
Number cuts repeat: 0
value: 59.863951
Number Constraints Used in Cover:448
GRASP Method!
Number cuts repeat: 0
value: 59.863951
Number Constraints Used in Cover:448
GRASP Method!
Number cuts repeat: 0
value: 59.863951
Number Constraints Used in Cover:451
GRASP Method!
Number cuts repeat: 0
value: 59.863951
Number Constraints Used in Cover:452
GRASP Method!
Number cuts repeat: 0
value: 59.863951
Number Constraints Used in Cover:453
GRASP Method!
Number cuts repeat: 0
value: 59.863951
Number Constraints Used in Cover:460
GRASP Method!
Number cuts repeat: 0
value: 59.863951
Number Constraints Used in Cover:461
GRASP Method!
Number cuts repeat: 0
value: 59.863951
Number Constraints Used in Cover:463
GRASP Method!
Number cuts repeat: 0
value: 59.863951
Number Constraints Used in Cover:465
GRASP Method!
Number cuts repeat: 0
value: 59.863951
Number Constraints Used in Cover:468
GRASP Method!
Number cuts repeat: 0
value: 59.863951
Number Constraints Used in Cover:472
GRASP Method!
Number cuts repeat: 0
value: 59.863951
Number Constraints Used in Cover:479
GRASP Method!
Number cuts repeat: 0
value: 59.863951
Number Constraints Used in Cover:486
GRASP Method!
Number cuts repeat: 0
value: 59.863951
Number Constraints Used in Cover:492
GRASP Method!
Number cuts repeat: 0
value: 59.863951
Number Constraints Used in Cover:496
GRASP Method!
Number cuts repeat: 0
value: 59.863951
Number Constraints Used in Cover:499
GRASP Method!
Number cuts repeat: 0
value: 59.863951
Number Constraints Used in Cover:504
GRASP Method!
Number cuts repeat: 0
value: 59.863951
Number Constraints Used in Cover:509
GRASP Method!
Number cuts repeat: 0
value: 59.863951
Number Constraints Used in Cover:513
GRASP Method!
Number cuts repeat: 0
value: 59.863951
Number Constraints Used in Cover:517
GRASP Method!
Number cuts repeat: 0
value: 59.863951
Number Constraints Used in Cover:520
GRASP Method!
Number cuts repeat: 0
value: 59.863951
Number Constraints Used in Cover:523
GRASP Method!
Number cuts repeat: 0
value: 59.863951
Number Constraints Used in Cover:525
GRASP Method!
Number cuts repeat: 0
value: 59.863951
Number Constraints Used in Cover:525
GRASP Method!
Number cuts repeat: 0
value: 59.863951
Number Constraints Used in Cover:526
GRASP Method!
Number cuts repeat: 0
value: 59.863951
Number Constraints Used in Cover:526
GRASP Method!
Number cuts repeat: 0
value: 59.863951
Number Constraints Used in Cover:527
GRASP Method!
Number cuts repeat: 0
value: 59.863951
Number Constraints Used in Cover:529
GRASP Method!
Number cuts repeat: 0
value: 59.863951
Number Constraints Used in Cover:529
GRASP Method!
Number cuts repeat: 0
value: 59.863951
Number Constraints Used in Cover:531
GRASP Method!
Number cuts repeat: 0
value: 59.863951
Number Constraints Used in Cover:532
GRASP Method!
Number cuts repeat: 0
value: 59.863951
Number Constraints Used in Cover:534
GRASP Method!
Number cuts repeat: 0
value: 59.863951
Number Constraints Used in Cover:535
GRASP Method!
Number cuts repeat: 0
value: 59.863951
Number Constraints Used in Cover:535
GRASP Method!
Number cuts repeat: 0
value: 59.863951
Number Constraints Used in Cover:537
GRASP Method!
Number cuts repeat: 0
value: 59.863951
Number Constraints Used in Cover:540
GRASP Method!
Number cuts repeat: 0
value: 59.863951
Number Constraints Used in Cover:540
GRASP Method!
Number cuts repeat: 0
value: 59.863951
Number Constraints Used in Cover:540
GRASP Method!
Number cuts repeat: 0
value: 59.863951
Number Constraints Used in Cover:540
GRASP Method!
Number cuts repeat: 0
value: 59.863951
Number Constraints Used in Cover:540
GRASP Method!
Number cuts repeat: 0
value: 59.863951
Number Constraints Used in Cover:542
GRASP Method!
Number cuts repeat: 0
value: 59.863951
Number Constraints Used in Cover:547
GRASP Method!
Number cuts repeat: 0
value: 59.863951
Number Constraints Used in Cover:548
GRASP Method!
Number cuts repeat: 0
value: 59.863951
Number Constraints Used in Cover:548
GRASP Method!
Number cuts repeat: 0
value: 59.863951
Number Constraints Used in Cover:550
GRASP Method!
Number cuts repeat: 0
value: 59.863951
Number Constraints Used in Cover:551
GRASP Method!
Number cuts repeat: 0
value: 59.863951
Number Constraints Used in Cover:552
GRASP Method!
Number cuts repeat: 0
value: 59.863951
Number Constraints Used in Cover:557
GRASP Method!
Number cuts repeat: 0
value: 59.863951
Number Constraints Used in Cover:558
GRASP Method!
Number cuts repeat: 0
value: 59.863951
Number Constraints Used in Cover:558
GRASP Method!
Number cuts repeat: 0
value: 59.863951
Number Constraints Used in Cover:558
GRASP Method!
Number cuts repeat: 0
value: 59.863951
Number Constraints Used in Cover:558
GRASP Method!
Number cuts repeat: 0
value: 59.863951
Number Constraints Used in Cover:560
GRASP Method!
Number cuts repeat: 0
value: 59.863951
Number Constraints Used in Cover:561
GRASP Method!
Number cuts repeat: 0
value: 59.863951
Number Constraints Used in Cover:564
GRASP Method!
Number cuts repeat: 0
value: 59.863951
Number Constraints Used in Cover:566
GRASP Method!
Number cuts repeat: 0
value: 59.863951
Number Constraints Used in Cover:569
GRASP Method!
Number cuts repeat: 0
value: 59.863951
Number Constraints Used in Cover:569
GRASP Method!
Number cuts repeat: 0
value: 59.863951
Number Constraints Used in Cover:571
GRASP Method!
Number cuts repeat: 0
value: 59.863951
Number Constraints Used in Cover:572
GRASP Method!
Number cuts repeat: 0
value: 59.863951
Number Constraints Used in Cover:572
GRASP Method!
Number cuts repeat: 0
value: 59.863951
Number Constraints Used in Cover:572
GRASP Method!
Number cuts repeat: 0
value: 59.863951
Number Constraints Used in Cover:573
GRASP Method!
Number cuts repeat: 0
value: 59.863951
Number Constraints Used in Cover:577
GRASP Method!
Number cuts repeat: 0
value: 59.863951
Number Constraints Used in Cover:577
GRASP Method!
Number cuts repeat: 0
value: 59.863951
Number Cuts Final: 574
